h = 6;
v = 2;

demand_per_h = [2, 4, 6, 3, 4, 1];
demand_per_v = [15, 15];

cost_per_house = [| 2, 3
                  | 1, 2
                  | 2, 1
                  | 2, 1
                  | 3, 3
                  | 2, 1|];
                  
cost_per_permit = [| 2, 4
                   | 2, 1
                   | 1, 2
                   | 3, 4, 
                   | 1, 1
                   | 1, 2|];

m = 5;